cases/matpower/case6.m
ipopt
SOCW
[info | PowerModels]: removing 3 cost terms from generator 6: Float64[]
[info | PowerModels]: removing 3 cost terms from generator 3: Float64[]
[warn | PowerModels]: multiple reference buses found, [4, 1], this can cause infeasibility if they are in the same connected component

******************************************************************************
This program contains Ipopt, a library for large-scale nonlinear optimization.
 Ipopt is released as open source code under the Eclipse Public License (EPL).
         For more information visit http://projects.coin-or.org/Ipopt
******************************************************************************

This is Ipopt version 3.13.2, running with linear solver mumps.
NOTE: Other linear solvers might be more efficient (see Ipopt documentation).

Number of nonzeros in equality constraint Jacobian...:      130
Number of nonzeros in inequality constraint Jacobian.:      108
Number of nonzeros in Lagrangian Hessian.............:       46

Total number of variables............................:       52
                     variables with only lower bounds:        0
                variables with lower and upper bounds:       52
                     variables with only upper bounds:        0
Total number of equality constraints.................:       36
Total number of inequality constraints...............:       42
        inequality constraints with only lower bounds:       18
   inequality constraints with lower and upper bounds:        0
        inequality constraints with only upper bounds:       24

iter    objective    inf_pr   inf_du lg(mu)  ||d||  lg(rg) alpha_du alpha_pr  ls
   0  1.2789987e+01 1.09e+00 1.66e+01  -1.0 0.00e+00    -  0.00e+00 0.00e+00   0
   1  3.0621142e+01 1.08e+00 1.67e+01  -1.0 1.96e+00    -  6.17e-03 9.68e-03h  1
   2  1.8777966e+02 1.01e+00 1.55e+01  -1.0 1.86e+00    -  2.38e-02 6.17e-02h  1
   3  3.6578334e+02 9.59e-01 1.48e+01  -1.0 1.72e+00    -  2.11e-01 5.29e-02h  1
   4  7.4781894e+03 2.22e-01 4.65e+01  -1.0 1.64e+00    -  1.99e-01 7.69e-01h  1
   5  9.8620462e+03 8.89e-02 2.12e+01  -1.0 3.73e-01    -  5.55e-01 6.31e-01h  1
   6  1.0053420e+04 7.65e-02 1.43e+01  -1.0 2.04e-01    -  4.32e-01 1.26e-01h  1
   7  1.1453533e+04 1.54e-02 1.89e+01  -1.0 2.13e-01    -  3.46e-01 1.00e+00h  1
   8  1.1471638e+04 1.73e-03 1.19e+00  -1.0 7.24e-02    -  9.90e-01 8.33e-01h  1
   9  1.1476780e+04 3.96e-16 4.90e-02  -1.0 3.85e-02    -  1.00e+00 1.00e+00h  1
iter    objective    inf_pr   inf_du lg(mu)  ||d||  lg(rg) alpha_du alpha_pr  ls
  10  1.1472440e+04 3.48e-05 8.18e-02  -2.5 2.52e-02    -  9.55e-01 9.88e-01f  1
  11  1.1472436e+04 4.37e-16 7.02e-03  -2.5 1.56e-02    -  1.00e+00 1.00e+00f  1
  12  1.1472347e+04 3.48e-06 2.94e-02  -3.8 7.46e-03    -  9.46e-01 1.00e+00h  1
  13  1.1472352e+04 3.12e-16 1.95e-03  -3.8 3.06e-03    -  1.00e+00 1.00e+00h  1
  14  1.1472353e+04 3.85e-16 4.34e-05  -3.8 4.66e-04    -  1.00e+00 1.00e+00h  1
  15  1.1472347e+04 2.78e-16 7.34e-06  -5.7 2.49e-04    -  1.00e+00 1.00e+00f  1
  16  1.1472347e+04 2.43e-16 1.10e-08  -8.6 7.42e-06    -  1.00e+00 1.00e+00h  1
  17  1.1472347e+04 3.09e-16 4.58e-13  -9.0 6.20e-09    -  1.00e+00 1.00e+00h  1

Number of Iterations....: 17

                                   (scaled)                 (unscaled)
Objective...............:   2.2944694752993091e+03    1.1472347376496546e+04
Dual infeasibility......:   4.5807977674637686e-13    2.2903988837318843e-12
Constraint violation....:   3.0878077872387166e-16    3.0878077872387166e-16
Complementarity.........:   9.0909228020113231e-10    4.5454614010056615e-09
Overall NLP error.......:   9.0909228020113231e-10    4.5454614010056615e-09


Number of objective function evaluations             = 18
Number of objective gradient evaluations             = 18
Number of equality constraint evaluations            = 18
Number of inequality constraint evaluations          = 18
Number of equality constraint Jacobian evaluations   = 18
Number of inequality constraint Jacobian evaluations = 18
Number of Lagrangian Hessian evaluations             = 17
Total CPU secs in IPOPT (w/o function evaluations)   =      0.289
Total CPU secs in NLP function evaluations           =      0.210

EXIT: Optimal Solution Found.
Time to Solution........:1.2370588779449463
